c ind 347 346 345 344 343 342 341 340 339 338 337 336 335 334 333 332 331 330 329 328 327 326 325 324 323 322 321 320 319 318 317 316  0
c ind 1005 1004 1003 1002 1001 1000 999 998 997 996 995 994 993 992 991 990 989 988 987 986 985 984 983 982 981 980 979 978 977 976 975 974  0
c ind 222 221 220 219 218 217 216 215 214 213 212 211 210 209 208 207 206 205 204 203 202 201 200 199 198 197 196 195 194 193 192 191  0
c ind 159 158 157 156 155 154 153 152 151 150 149 148 147 146 145 144 143 142 141 140 139 138 137 136 135 134 133 132 131 130 129 128  0
c ind 1068 1067 1066 1065 1064 1063 1062 1061 1060 1059 1058 1057 1056 1055 1054 1053 1052 1051 1050 1049 1048 1047 1046 1045 1044 1043 1042 1041 1040 1039 1038 1037  0
c ind 754 753 752 751 750 749 748 747 746 745 744 743 742 741 740 739 738 737 736 735 734 733 732 731 730 729 728 727 726 725 724 723  0
c ind 1225 1224 1223 1222 1221 1220 1219 1218 1217 1216 1215 1214 1213 1212 1211 1210 1209 1208 1207 1206 1205 1204 1203 1202 1201 1200 1199 1198 1197 1196 1195 1194  0
c ind 1319 1318 1317 1316 1315 1314 1313 1312 1311 1310 1309 1308 1307 1306 1305 1304 1303 1302 1301 1300 1299 1298 1297 1296 1295 1294 1293 1292 1291 1290 1289 1288  0
c ind 472 471 470 469 468 467 466 465 464 463 462 461 460 459 458 457 456 455 454 453 452 451 450 449 448 447 446 445 444 443 442 441  0
c ind 96 95 94 93 92 91 90 89 88 87 86 85 84 83 82 81 80 79 78 77 76 75 74 73 72 71 70 69 68 67 66 65  0
c ind 33 32 31 30 29 28 27 26 25 24 23 22 21 20 19 18 17 16 15 14 13 12 11 10 9 8 7 6 5 4 3 2  0
c ind 660 659 658 657 656 655 654 653 652 651 650 649 648 647 646 645 644 643 642 641 640 639 638 637 636 635 634 633 632 631 630 629  0
c ind 942 941 940 939 938 937 936 935 934 933 932 931 930 929 928 927 926 925 924 923 922 921 920 919 918 917 916 915 914 913 912 911  0
c ind 1162 1161 1160 1159 1158 1157 1156 1155 1154 1153 1152 1151 1150 1149 1148 1147 1146 1145 1144 1143 1142 1141 1140 1139 1138 1137 1136 1135 1134 1133 1132 1131  0
c ind 566 565 564 563 562 561 560 559 558 557 556 555 554 553 552 551 550 549 548 547 546 545 544 543 542 541 540 539 538 537 536 535  0
c ind 879 878 877 876 875 874 873 872 871 870 869 868 867 866 865 864 863 862 861 860 859 858 857 856 855 854 853 852 851 850 849 848  0
p cnf 1381 2522
1 0
-64 0
-65 0
-66 0
-67 0
-68 0
-69 0
-70 0
-71 0
-72 0
-73 0
-74 0
-75 0
-76 0
-77 0
-78 0
-79 0
-80 0
-81 0
-82 0
-83 0
-84 0
-85 0
-86 0
-87 0
-88 0
-89 0
-90 0
-91 0
-92 0
-93 0
-94 0
-95 0
-96 0
97 0
98 0
99 0
100 0
101 0
102 0
103 0
104 0
105 0
106 0
107 0
108 0
109 0
110 0
111 0
112 0
113 0
114 0
115 0
116 0
117 0
118 0
119 0
120 0
121 0
122 0
123 0
124 0
125 0
126 0
127 0
-190 0
-253 0
-284 0
-315 0
-378 0
-409 0
-440 0
-503 0
-534 0
-597 0
-628 0
-691 0
-722 0
-847 0
-848 0
-849 0
-850 0
-851 0
-852 0
-853 0
-854 0
-855 0
-856 0
-857 0
-858 0
-859 0
-860 0
-861 0
-862 0
-863 0
-864 0
-865 0
-866 0
-867 0
-868 0
-869 0
-870 0
-871 0
-872 0
-873 0
-874 0
-875 0
-876 0
-877 0
-878 0
-879 0
880 0
881 0
882 0
883 0
884 0
885 0
886 0
887 0
888 0
889 0
890 0
891 0
892 0
893 0
894 0
895 0
896 0
897 0
898 0
899 0
900 0
901 0
902 0
903 0
904 0
905 0
906 0
907 0
908 0
909 0
910 0
-973 0
-974 0
-975 0
-976 0
-977 0
-978 0
-979 0
-980 0
-981 0
-982 0
-983 0
-984 0
-985 0
-986 0
-987 0
-988 0
-989 0
-990 0
-991 0
-992 0
-993 0
-994 0
-995 0
-996 0
-997 0
-998 0
-999 0
-1000 0
-1001 0
-1002 0
-1003 0
-1004 0
-1005 0
1006 0
1007 0
1008 0
1009 0
1010 0
1011 0
1012 0
1013 0
1014 0
1015 0
1016 0
1017 0
1018 0
1019 0
1020 0
1021 0
1022 0
1023 0
1024 0
1025 0
1026 0
1027 0
1028 0
1029 0
1030 0
1031 0
1032 0
1033 0
1034 0
1035 0
1036 0
-1099 0
-1130 0
-1193 0
-1256 0
-1287 0
-1350 0
-1381 0
-2 -34 0
-2 -285 0
2 3 34 0
2 3 285 0
-3 -34 0
-3 -285 0
-4 -35 0
-4 -286 0
4 -34 35 0
4 -285 286 0
-5 -36 0
-5 -287 0
5 -35 36 0
5 -286 287 0
-6 -37 0
-6 -288 0
6 -36 37 0
6 -287 288 0
-7 -38 0
-7 -289 0
7 -37 38 0
7 -288 289 0
-8 -39 0
-8 -290 0
8 -38 39 0
8 -289 290 0
-9 -40 0
-9 -291 0
9 -39 40 0
9 -290 291 0
-10 -41 0
-10 -292 0
10 -40 41 0
10 -291 292 0
-11 -42 0
-11 -293 0
11 -41 42 0
11 -292 293 0
-12 -43 0
-12 -294 0
12 -42 43 0
12 -293 294 0
-13 -44 0
-13 -295 0
13 -43 44 0
13 -294 295 0
-14 -45 0
-14 -296 0
14 -44 45 0
14 -295 296 0
-15 -46 0
-15 -297 0
15 -45 46 0
15 -296 297 0
-16 -47 0
-16 -298 0
16 -46 47 0
16 -297 298 0
-17 -48 0
-17 -299 0
17 -47 48 0
17 -298 299 0
-18 -49 0
-18 -300 0
18 -48 49 0
18 -299 300 0
-19 -50 0
-19 -301 0
19 -49 50 0
19 -300 301 0
-20 -51 0
-20 -302 0
20 -50 51 0
20 -301 302 0
-21 -52 0
-21 -303 0
21 -51 52 0
21 -302 303 0
-22 -53 0
-22 -304 0
22 -52 53 0
22 -303 304 0
-23 -54 0
-23 -305 0
23 -53 54 0
23 -304 305 0
-24 -55 0
-24 -306 0
24 -54 55 0
24 -305 306 0
-25 -56 0
-25 -307 0
25 -55 56 0
25 -306 307 0
-26 -57 0
-26 -308 0
26 -56 57 0
26 -307 308 0
-27 -309 0
-27 -57 58 0
27 -58 0
27 -308 309 0
-28 -59 0
-28 -310 0
28 -58 59 0
28 -309 310 0
-29 -311 0
-29 -59 60 0
29 -60 0
29 -310 311 0
-30 -312 0
-30 -60 61 0
30 -61 0
30 -311 312 0
-31 -313 0
-31 -61 62 0
31 -62 0
31 -312 313 0
-32 -63 0
-32 -314 0
32 -62 63 0
32 -313 314 0
33 -63 0
33 -314 0
34 -35 0
35 -36 0
36 -37 0
37 -38 0
38 -39 0
39 -40 0
40 -41 0
41 -42 0
42 -43 0
43 -44 0
44 -45 0
45 -46 0
46 -47 0
47 -48 0
48 -49 0
49 -50 0
50 -51 0
51 -52 0
52 -53 0
53 -54 0
54 -55 0
55 -56 0
56 -57 0
57 -58 0
58 -59 0
59 -60 0
60 -61 0
61 -62 0
62 -63 0
-128 -160 0
-128 -410 0
128 129 160 0
128 129 410 0
-129 -160 0
-129 -410 0
-130 -161 0
-130 -411 0
130 -160 161 0
130 -410 411 0
-131 -162 0
-131 -412 0
131 -161 162 0
131 -411 412 0
-132 -163 0
-132 -413 0
132 -162 163 0
132 -412 413 0
-133 -164 0
-133 -414 0
133 -163 164 0
133 -413 414 0
-134 -165 0
-134 -415 0
134 -164 165 0
134 -414 415 0
-135 -166 0
-135 -416 0
135 -165 166 0
135 -415 416 0
-136 -167 0
-136 -417 0
136 -166 167 0
136 -416 417 0
-137 -168 0
-137 -418 0
137 -167 168 0
137 -417 418 0
-138 -169 0
-138 -419 0
138 -168 169 0
138 -418 419 0
-139 -170 0
-139 -420 0
139 -169 170 0
139 -419 420 0
-140 -171 0
-140 -421 0
140 -170 171 0
140 -420 421 0
-141 -172 0
-141 -422 0
141 -171 172 0
141 -421 422 0
-142 -173 0
-142 -423 0
142 -172 173 0
142 -422 423 0
-143 -174 0
-143 -424 0
143 -173 174 0
143 -423 424 0
-144 -175 0
-144 -425 0
144 -174 175 0
144 -424 425 0
-145 -176 0
-145 -426 0
145 -175 176 0
145 -425 426 0
-146 -177 0
-146 -427 0
146 -176 177 0
146 -426 427 0
-147 -178 0
-147 -428 0
147 -177 178 0
147 -427 428 0
-148 -179 0
-148 -429 0
148 -178 179 0
148 -428 429 0
-149 -180 0
-149 -430 0
149 -179 180 0
149 -429 430 0
-150 -181 0
-150 -431 0
150 -180 181 0
150 -430 431 0
-151 -182 0
-151 -432 0
151 -181 182 0
151 -431 432 0
-152 -183 0
-152 -433 0
152 -182 183 0
152 -432 433 0
-153 -434 0
-153 -183 184 0
153 -184 0
153 -433 434 0
-154 -185 0
-154 -435 0
154 -184 185 0
154 -434 435 0
-155 -436 0
-155 -185 186 0
155 -186 0
155 -435 436 0
-156 -437 0
-156 -186 187 0
156 -187 0
156 -436 437 0
-157 -438 0
-157 -187 188 0
157 -188 0
157 -437 438 0
-158 -189 0
-158 -439 0
158 -188 189 0
158 -438 439 0
159 -189 0
159 -439 0
160 -161 0
161 -162 0
162 -163 0
163 -164 0
164 -165 0
165 -166 0
166 -167 0
167 -168 0
168 -169 0
169 -170 0
170 -171 0
171 -172 0
172 -173 0
173 -174 0
174 -175 0
175 -176 0
176 -177 0
177 -178 0
178 -179 0
179 -180 0
180 -181 0
181 -182 0
182 -183 0
183 -184 0
184 -185 0
185 -186 0
186 -187 0
187 -188 0
188 -189 0
-191 -223 0
-191 -254 0
191 192 223 0
191 192 254 0
-192 -223 0
-192 -254 0
-193 -224 0
-193 -255 0
193 -223 224 0
193 -254 255 0
-194 -225 0
-194 -256 0
194 -224 225 0
194 -255 256 0
-195 -226 0
-195 -257 0
195 -225 226 0
195 -256 257 0
-196 -227 0
-196 -258 0
196 -226 227 0
196 -257 258 0
-197 -228 0
-197 -259 0
197 -227 228 0
197 -258 259 0
-198 -229 0
-198 -260 0
198 -228 229 0
198 -259 260 0
-199 -230 0
-199 -261 0
199 -229 230 0
199 -260 261 0
-200 -231 0
-200 -262 0
200 -230 231 0
200 -261 262 0
-201 -232 0
-201 -263 0
201 -231 232 0
201 -262 263 0
-202 -233 0
-202 -264 0
202 -232 233 0
202 -263 264 0
-203 -234 0
-203 -265 0
203 -233 234 0
203 -264 265 0
-204 -235 0
-204 -266 0
204 -234 235 0
204 -265 266 0
-205 -236 0
-205 -267 0
205 -235 236 0
205 -266 267 0
-206 -237 0
-206 -268 0
206 -236 237 0
206 -267 268 0
-207 -238 0
-207 -269 0
207 -237 238 0
207 -268 269 0
-208 -239 0
-208 -270 0
208 -238 239 0
208 -269 270 0
-209 -240 0
-209 -271 0
209 -239 240 0
209 -270 271 0
-210 -241 0
-210 -272 0
210 -240 241 0
210 -271 272 0
-211 -242 0
-211 -273 0
211 -241 242 0
211 -272 273 0
-212 -243 0
-212 -274 0
212 -242 243 0
212 -273 274 0
-213 -244 0
-213 -275 0
213 -243 244 0
213 -274 275 0
-214 -245 0
-214 -276 0
214 -244 245 0
214 -275 276 0
-215 -246 0
-215 -277 0
215 -245 246 0
215 -276 277 0
-216 -247 0
-216 -277 278 0
216 -278 0
216 -246 247 0
-217 -248 0
-217 -279 0
217 -247 248 0
217 -278 279 0
-218 -249 0
-218 -279 280 0
218 -280 0
218 -248 249 0
-219 -250 0
-219 -280 281 0
219 -281 0
219 -249 250 0
-220 -251 0
-220 -281 282 0
220 -282 0
220 -250 251 0
-221 -252 0
-221 -283 0
221 -251 252 0
221 -282 283 0
222 -252 0
222 -283 0
223 -224 0
224 -225 0
225 -226 0
226 -227 0
227 -228 0
228 -229 0
229 -230 0
230 -231 0
231 -232 0
232 -233 0
233 -234 0
234 -235 0
235 -236 0
236 -237 0
237 -238 0
238 -239 0
239 -240 0
240 -241 0
241 -242 0
242 -243 0
243 -244 0
244 -245 0
245 -246 0
246 -247 0
247 -248 0
248 -249 0
249 -250 0
250 -251 0
251 -252 0
254 -255 0
255 -256 0
256 -257 0
257 -258 0
258 -259 0
259 -260 0
260 -261 0
261 -262 0
262 -263 0
263 -264 0
264 -265 0
265 -266 0
266 -267 0
267 -268 0
268 -269 0
269 -270 0
270 -271 0
271 -272 0
272 -273 0
273 -274 0
274 -275 0
275 -276 0
276 -277 0
277 -278 0
278 -279 0
279 -280 0
280 -281 0
281 -282 0
282 -283 0
285 -286 0
286 -287 0
287 -288 0
288 -289 0
289 -290 0
290 -291 0
291 -292 0
292 -293 0
293 -294 0
294 -295 0
295 -296 0
296 -297 0
297 -298 0
298 -299 0
299 -300 0
300 -301 0
301 -302 0
302 -303 0
303 -304 0
304 -305 0
305 -306 0
306 -307 0
307 -308 0
308 -309 0
309 -310 0
310 -311 0
311 -312 0
312 -313 0
313 -314 0
-316 -348 0
-316 -379 0
316 317 348 0
316 317 379 0
-317 -348 0
-317 -379 0
-318 -349 0
-318 -380 0
318 -348 349 0
318 -379 380 0
-319 -350 0
-319 -381 0
319 -349 350 0
319 -380 381 0
-320 -351 0
-320 -382 0
320 -350 351 0
320 -381 382 0
-321 -352 0
-321 -383 0
321 -351 352 0
321 -382 383 0
-322 -353 0
-322 -384 0
322 -352 353 0
322 -383 384 0
-323 -354 0
-323 -385 0
323 -353 354 0
323 -384 385 0
-324 -355 0
-324 -386 0
324 -354 355 0
324 -385 386 0
-325 -356 0
-325 -387 0
325 -355 356 0
325 -386 387 0
-326 -357 0
-326 -388 0
326 -356 357 0
326 -387 388 0
-327 -358 0
-327 -389 0
327 -357 358 0
327 -388 389 0
-328 -359 0
-328 -390 0
328 -358 359 0
328 -389 390 0
-329 -360 0
-329 -391 0
329 -359 360 0
329 -390 391 0
-330 -361 0
-330 -392 0
330 -360 361 0
330 -391 392 0
-331 -362 0
-331 -393 0
331 -361 362 0
331 -392 393 0
-332 -363 0
-332 -394 0
332 -362 363 0
332 -393 394 0
-333 -364 0
-333 -395 0
333 -363 364 0
333 -394 395 0
-334 -365 0
-334 -396 0
334 -364 365 0
334 -395 396 0
-335 -366 0
-335 -397 0
335 -365 366 0
335 -396 397 0
-336 -367 0
-336 -398 0
336 -366 367 0
336 -397 398 0
-337 -368 0
-337 -399 0
337 -367 368 0
337 -398 399 0
-338 -369 0
-338 -400 0
338 -368 369 0
338 -399 400 0
-339 -370 0
-339 -401 0
339 -369 370 0
339 -400 401 0
-340 -371 0
-340 -402 0
340 -370 371 0
340 -401 402 0
-341 -372 0
-341 -402 403 0
341 -403 0
341 -371 372 0
-342 -373 0
-342 -404 0
342 -372 373 0
342 -403 404 0
-343 -374 0
-343 -404 405 0
343 -405 0
343 -373 374 0
-344 -375 0
-344 -405 406 0
344 -406 0
344 -374 375 0
-345 -376 0
-345 -406 407 0
345 -407 0
345 -375 376 0
-346 -377 0
-346 -408 0
346 -376 377 0
346 -407 408 0
347 -377 0
347 -408 0
348 -349 0
349 -350 0
350 -351 0
351 -352 0
352 -353 0
353 -354 0
354 -355 0
355 -356 0
356 -357 0
357 -358 0
358 -359 0
359 -360 0
360 -361 0
361 -362 0
362 -363 0
363 -364 0
364 -365 0
365 -366 0
366 -367 0
367 -368 0
368 -369 0
369 -370 0
370 -371 0
371 -372 0
372 -373 0
373 -374 0
374 -375 0
375 -376 0
376 -377 0
379 -380 0
380 -381 0
381 -382 0
382 -383 0
383 -384 0
384 -385 0
385 -386 0
386 -387 0
387 -388 0
388 -389 0
389 -390 0
390 -391 0
391 -392 0
392 -393 0
393 -394 0
394 -395 0
395 -396 0
396 -397 0
397 -398 0
398 -399 0
399 -400 0
400 -401 0
401 -402 0
402 -403 0
403 -404 0
404 -405 0
405 -406 0
406 -407 0
407 -408 0
410 -411 0
411 -412 0
412 -413 0
413 -414 0
414 -415 0
415 -416 0
416 -417 0
417 -418 0
418 -419 0
419 -420 0
420 -421 0
421 -422 0
422 -423 0
423 -424 0
424 -425 0
425 -426 0
426 -427 0
427 -428 0
428 -429 0
429 -430 0
430 -431 0
431 -432 0
432 -433 0
433 -434 0
434 -435 0
435 -436 0
436 -437 0
437 -438 0
438 -439 0
-441 -473 0
-441 -504 0
441 442 473 0
441 442 504 0
-442 -473 0
-442 -504 0
-443 -474 0
-443 -505 0
443 -473 474 0
443 -504 505 0
-444 -475 0
-444 -506 0
444 -474 475 0
444 -505 506 0
-445 -476 0
-445 -507 0
445 -475 476 0
445 -506 507 0
-446 -477 0
-446 -508 0
446 -476 477 0
446 -507 508 0
-447 -478 0
-447 -509 0
447 -477 478 0
447 -508 509 0
-448 -479 0
-448 -510 0
448 -478 479 0
448 -509 510 0
-449 -480 0
-449 -511 0
449 -479 480 0
449 -510 511 0
-450 -481 0
-450 -512 0
450 -480 481 0
450 -511 512 0
-451 -482 0
-451 -513 0
451 -481 482 0
451 -512 513 0
-452 -483 0
-452 -514 0
452 -482 483 0
452 -513 514 0
-453 -484 0
-453 -515 0
453 -483 484 0
453 -514 515 0
-454 -485 0
-454 -516 0
454 -484 485 0
454 -515 516 0
-455 -486 0
-455 -517 0
455 -485 486 0
455 -516 517 0
-456 -487 0
-456 -518 0
456 -486 487 0
456 -517 518 0
-457 -488 0
-457 -519 0
457 -487 488 0
457 -518 519 0
-458 -489 0
-458 -520 0
458 -488 489 0
458 -519 520 0
-459 -490 0
-459 -521 0
459 -489 490 0
459 -520 521 0
-460 -491 0
-460 -522 0
460 -490 491 0
460 -521 522 0
-461 -492 0
-461 -523 0
461 -491 492 0
461 -522 523 0
-462 -493 0
-462 -524 0
462 -492 493 0
462 -523 524 0
-463 -494 0
-463 -525 0
463 -493 494 0
463 -524 525 0
-464 -495 0
-464 -526 0
464 -494 495 0
464 -525 526 0
-465 -496 0
-465 -527 0
465 -495 496 0
465 -526 527 0
-466 -528 0
-466 -496 497 0
466 -497 0
466 -527 528 0
-467 -498 0
-467 -529 0
467 -497 498 0
467 -528 529 0
-468 -530 0
-468 -498 499 0
468 -499 0
468 -529 530 0
-469 -531 0
-469 -499 500 0
469 -500 0
469 -530 531 0
-470 -532 0
-470 -500 501 0
470 -501 0
470 -531 532 0
-471 -502 0
-471 -533 0
471 -501 502 0
471 -532 533 0
472 -502 0
472 -533 0
473 -474 0
474 -475 0
475 -476 0
476 -477 0
477 -478 0
478 -479 0
479 -480 0
480 -481 0
481 -482 0
482 -483 0
483 -484 0
484 -485 0
485 -486 0
486 -487 0
487 -488 0
488 -489 0
489 -490 0
490 -491 0
491 -492 0
492 -493 0
493 -494 0
494 -495 0
495 -496 0
496 -497 0
497 -498 0
498 -499 0
499 -500 0
500 -501 0
501 -502 0
504 -505 0
505 -506 0
506 -507 0
507 -508 0
508 -509 0
509 -510 0
510 -511 0
511 -512 0
512 -513 0
513 -514 0
514 -515 0
515 -516 0
516 -517 0
517 -518 0
518 -519 0
519 -520 0
520 -521 0
521 -522 0
522 -523 0
523 -524 0
524 -525 0
525 -526 0
526 -527 0
527 -528 0
528 -529 0
529 -530 0
530 -531 0
531 -532 0
532 -533 0
-535 -567 0
-535 -598 0
535 536 567 0
535 536 598 0
-536 -567 0
-536 -598 0
-537 -568 0
-537 -599 0
537 -567 568 0
537 -598 599 0
-538 -569 0
-538 -600 0
538 -568 569 0
538 -599 600 0
-539 -570 0
-539 -601 0
539 -569 570 0
539 -600 601 0
-540 -571 0
-540 -602 0
540 -570 571 0
540 -601 602 0
-541 -572 0
-541 -603 0
541 -571 572 0
541 -602 603 0
-542 -573 0
-542 -604 0
542 -572 573 0
542 -603 604 0
-543 -574 0
-543 -605 0
543 -573 574 0
543 -604 605 0
-544 -575 0
-544 -606 0
544 -574 575 0
544 -605 606 0
-545 -576 0
-545 -607 0
545 -575 576 0
545 -606 607 0
-546 -577 0
-546 -608 0
546 -576 577 0
546 -607 608 0
-547 -578 0
-547 -609 0
547 -577 578 0
547 -608 609 0
-548 -579 0
-548 -610 0
548 -578 579 0
548 -609 610 0
-549 -580 0
-549 -611 0
549 -579 580 0
549 -610 611 0
-550 -581 0
-550 -612 0
550 -580 581 0
550 -611 612 0
-551 -582 0
-551 -613 0
551 -581 582 0
551 -612 613 0
-552 -583 0
-552 -614 0
552 -582 583 0
552 -613 614 0
-553 -584 0
-553 -615 0
553 -583 584 0
553 -614 615 0
-554 -585 0
-554 -616 0
554 -584 585 0
554 -615 616 0
-555 -586 0
-555 -617 0
555 -585 586 0
555 -616 617 0
-556 -587 0
-556 -618 0
556 -586 587 0
556 -617 618 0
-557 -588 0
-557 -619 0
557 -587 588 0
557 -618 619 0
-558 -589 0
-558 -620 0
558 -588 589 0
558 -619 620 0
-559 -590 0
-559 -621 0
559 -589 590 0
559 -620 621 0
-560 -622 0
-560 -590 591 0
560 -591 0
560 -621 622 0
-561 -592 0
-561 -623 0
561 -591 592 0
561 -622 623 0
-562 -624 0
-562 -592 593 0
562 -593 0
562 -623 624 0
-563 -625 0
-563 -593 594 0
563 -594 0
563 -624 625 0
-564 -626 0
-564 -594 595 0
564 -595 0
564 -625 626 0
-565 -596 0
-565 -627 0
565 -595 596 0
565 -626 627 0
566 -596 0
566 -627 0
567 -568 0
568 -569 0
569 -570 0
570 -571 0
571 -572 0
572 -573 0
573 -574 0
574 -575 0
575 -576 0
576 -577 0
577 -578 0
578 -579 0
579 -580 0
580 -581 0
581 -582 0
582 -583 0
583 -584 0
584 -585 0
585 -586 0
586 -587 0
587 -588 0
588 -589 0
589 -590 0
590 -591 0
591 -592 0
592 -593 0
593 -594 0
594 -595 0
595 -596 0
598 -599 0
599 -600 0
600 -601 0
601 -602 0
602 -603 0
603 -604 0
604 -605 0
605 -606 0
606 -607 0
607 -608 0
608 -609 0
609 -610 0
610 -611 0
611 -612 0
612 -613 0
613 -614 0
614 -615 0
615 -616 0
616 -617 0
617 -618 0
618 -619 0
619 -620 0
620 -621 0
621 -622 0
622 -623 0
623 -624 0
624 -625 0
625 -626 0
626 -627 0
-629 -661 0
-629 -692 0
629 630 661 0
629 630 692 0
-630 -661 0
-630 -692 0
-631 -662 0
-631 -693 0
631 -661 662 0
631 -692 693 0
-632 -663 0
-632 -694 0
632 -662 663 0
632 -693 694 0
-633 -664 0
-633 -695 0
633 -663 664 0
633 -694 695 0
-634 -665 0
-634 -696 0
634 -664 665 0
634 -695 696 0
-635 -666 0
-635 -697 0
635 -665 666 0
635 -696 697 0
-636 -667 0
-636 -698 0
636 -666 667 0
636 -697 698 0
-637 -668 0
-637 -699 0
637 -667 668 0
637 -698 699 0
-638 -669 0
-638 -700 0
638 -668 669 0
638 -699 700 0
-639 -670 0
-639 -701 0
639 -669 670 0
639 -700 701 0
-640 -671 0
-640 -702 0
640 -670 671 0
640 -701 702 0
-641 -672 0
-641 -703 0
641 -671 672 0
641 -702 703 0
-642 -673 0
-642 -704 0
642 -672 673 0
642 -703 704 0
-643 -674 0
-643 -705 0
643 -673 674 0
643 -704 705 0
-644 -675 0
-644 -706 0
644 -674 675 0
644 -705 706 0
-645 -676 0
-645 -707 0
645 -675 676 0
645 -706 707 0
-646 -677 0
-646 -708 0
646 -676 677 0
646 -707 708 0
-647 -678 0
-647 -709 0
647 -677 678 0
647 -708 709 0
-648 -679 0
-648 -710 0
648 -678 679 0
648 -709 710 0
-649 -680 0
-649 -711 0
649 -679 680 0
649 -710 711 0
-650 -681 0
-650 -712 0
650 -680 681 0
650 -711 712 0
-651 -682 0
-651 -713 0
651 -681 682 0
651 -712 713 0
-652 -683 0
-652 -714 0
652 -682 683 0
652 -713 714 0
-653 -684 0
-653 -715 0
653 -683 684 0
653 -714 715 0
-654 -716 0
-654 -684 685 0
654 -685 0
654 -715 716 0
-655 -686 0
-655 -717 0
655 -685 686 0
655 -716 717 0
-656 -718 0
-656 -686 687 0
656 -687 0
656 -717 718 0
-657 -719 0
-657 -687 688 0
657 -688 0
657 -718 719 0
-658 -720 0
-658 -688 689 0
658 -689 0
658 -719 720 0
-659 -690 0
-659 -721 0
659 -689 690 0
659 -720 721 0
660 -690 0
660 -721 0
661 -662 0
662 -663 0
663 -664 0
664 -665 0
665 -666 0
666 -667 0
667 -668 0
668 -669 0
669 -670 0
670 -671 0
671 -672 0
672 -673 0
673 -674 0
674 -675 0
675 -676 0
676 -677 0
677 -678 0
678 -679 0
679 -680 0
680 -681 0
681 -682 0
682 -683 0
683 -684 0
684 -685 0
685 -686 0
686 -687 0
687 -688 0
688 -689 0
689 -690 0
692 -693 0
693 -694 0
694 -695 0
695 -696 0
696 -697 0
697 -698 0
698 -699 0
699 -700 0
700 -701 0
701 -702 0
702 -703 0
703 -704 0
704 -705 0
705 -706 0
706 -707 0
707 -708 0
708 -709 0
709 -710 0
710 -711 0
711 -712 0
712 -713 0
713 -714 0
714 -715 0
715 -716 0
716 -717 0
717 -718 0
718 -719 0
719 -720 0
720 -721 0
-723 -785 -784 0
-723 785 784 0
723 -785 784 0
723 785 -784 0
-724 -784 0
-724 -786 -783 0
-724 786 783 0
724 -783 784 0
724 -786 783 0
724 786 -783 0
-725 -783 0
-725 -787 -782 0
-725 787 782 0
725 -782 783 0
725 -787 782 0
725 787 -782 0
-726 -782 0
-726 -788 -781 0
-726 788 781 0
726 -781 782 0
726 -788 781 0
726 788 -781 0
-727 -781 0
-727 -789 -780 0
-727 789 780 0
727 -780 781 0
727 -789 780 0
727 789 -780 0
-728 -780 0
-728 -790 -779 0
-728 790 779 0
728 -779 780 0
728 -790 779 0
728 790 -779 0
-729 -779 0
-729 -791 -778 0
-729 791 778 0
729 -778 779 0
729 -791 778 0
729 791 -778 0
-730 -778 0
-730 -792 -777 0
-730 792 777 0
730 -777 778 0
730 -792 777 0
730 792 -777 0
-731 -777 0
-731 -793 -776 0
-731 793 776 0
731 -776 777 0
731 -793 776 0
731 793 -776 0
-732 -776 0
-732 -794 -775 0
-732 794 775 0
732 -775 776 0
732 -794 775 0
732 794 -775 0
-733 -775 0
-733 -795 -774 0
-733 795 774 0
733 -774 775 0
733 -795 774 0
733 795 -774 0
-734 -774 0
-734 -796 -773 0
-734 796 773 0
734 -773 774 0
734 -796 773 0
734 796 -773 0
-735 -773 0
-735 -797 -772 0
-735 797 772 0
735 -772 773 0
735 -797 772 0
735 797 -772 0
-736 -772 0
-736 -798 -771 0
-736 798 771 0
736 -771 772 0
736 -798 771 0
736 798 -771 0
-737 -771 0
-737 -799 -770 0
-737 799 770 0
737 -770 771 0
737 -799 770 0
737 799 -770 0
-738 -770 0
-738 -800 -769 0
-738 800 769 0
738 -769 770 0
738 -800 769 0
738 800 -769 0
-739 -769 0
-739 -801 -768 0
-739 801 768 0
739 -768 769 0
739 -801 768 0
739 801 -768 0
-740 -768 0
-740 -802 -767 0
-740 802 767 0
740 -767 768 0
740 -802 767 0
740 802 -767 0
-741 -767 0
-741 -803 -766 0
-741 803 766 0
741 -766 767 0
741 -803 766 0
741 803 -766 0
-742 -766 0
-742 -804 -765 0
-742 804 765 0
742 -765 766 0
742 -804 765 0
742 804 -765 0
-743 -765 0
-743 -805 -764 0
-743 805 764 0
743 -764 765 0
743 -805 764 0
743 805 -764 0
-744 -764 0
-744 -806 -763 0
-744 806 763 0
744 -763 764 0
744 -806 763 0
744 806 -763 0
-745 -763 0
-745 -807 -762 0
-745 807 762 0
745 -762 763 0
745 -807 762 0
745 807 -762 0
-746 -762 0
-746 -808 -761 0
-746 808 761 0
746 -761 762 0
746 -808 761 0
746 808 -761 0
-747 -761 0
-747 -809 -760 0
-747 809 760 0
747 -760 761 0
747 -809 760 0
747 809 -760 0
-748 -760 0
-748 -810 -759 0
-748 810 759 0
748 -759 760 0
748 -810 759 0
748 810 -759 0
-749 -759 0
-749 -811 -758 0
-749 811 758 0
749 -758 759 0
749 -811 758 0
749 811 -758 0
-750 -758 0
-750 -812 -757 0
-750 812 757 0
750 -757 758 0
750 -812 757 0
750 812 -757 0
-751 -757 0
-751 -813 -756 0
-751 813 756 0
751 -756 757 0
751 -813 756 0
751 813 -756 0
-752 -756 0
-752 -814 755 0
-752 814 -755 0
752 755 756 0
752 -814 -755 0
752 814 755 0
-753 -815 0
-753 -754 755 0
753 -755 0
753 754 815 0
-754 -815 0
-754 -845 846 0
754 -755 0
754 -846 0
-755 -756 0
-755 -816 0
755 815 816 0
756 -757 0
757 -758 0
758 -759 0
759 -760 0
760 -761 0
761 -762 0
762 -763 0
763 -764 0
764 -765 0
765 -766 0
766 -767 0
767 -768 0
768 -769 0
769 -770 0
770 -771 0
771 -772 0
772 -773 0
773 -774 0
774 -775 0
775 -776 0
776 -777 0
777 -778 0
778 -779 0
779 -780 0
780 -781 0
781 -782 0
782 -783 0
783 -784 0
785 846 0
-786 -817 0
786 787 817 0
-787 -817 0
-788 -818 0
788 -817 818 0
-789 -819 0
789 -818 819 0
-790 -820 0
790 -819 820 0
-791 -821 0
791 -820 821 0
-792 -822 0
792 -821 822 0
-793 -823 0
793 -822 823 0
-794 -824 0
794 -823 824 0
-795 -825 0
795 -824 825 0
-796 -826 0
796 -825 826 0
-797 -827 0
797 -826 827 0
-798 -828 0
798 -827 828 0
-799 -829 0
799 -828 829 0
-800 -830 0
800 -829 830 0
-801 -831 0
801 -830 831 0
-802 -832 0
802 -831 832 0
-803 -833 0
803 -832 833 0
-804 -834 0
804 -833 834 0
-805 -835 0
805 -834 835 0
-806 -836 0
806 -835 836 0
-807 -837 0
807 -836 837 0
-808 -838 0
808 -837 838 0
-809 -839 0
809 -838 839 0
-810 -840 0
810 -839 840 0
-811 -841 0
811 -840 841 0
-812 -842 0
812 -841 842 0
-813 -843 0
813 -842 843 0
-814 -844 0
814 -843 844 0
-815 -816 0
-816 -845 0
816 -844 845 0
817 -818 0
818 -819 0
819 -820 0
820 -821 0
821 -822 0
822 -823 0
823 -824 0
824 -825 0
825 -826 0
826 -827 0
827 -828 0
828 -829 0
829 -830 0
830 -831 0
831 -832 0
832 -833 0
833 -834 0
834 -835 0
835 -836 0
836 -837 0
837 -838 0
838 -839 0
839 -840 0
840 -841 0
841 -842 0
842 -843 0
843 -844 0
844 -845 0
845 -846 0
-911 -943 0
911 912 943 0
-912 -943 0
-913 -944 0
913 -943 944 0
-914 -945 0
914 -944 945 0
-915 -946 0
915 -945 946 0
-916 -947 0
916 -946 947 0
-917 -948 0
917 -947 948 0
-918 -949 0
918 -948 949 0
-919 -950 0
919 -949 950 0
-920 -951 0
920 -950 951 0
-921 -952 0
921 -951 952 0
-922 -953 0
922 -952 953 0
-923 -954 0
923 -953 954 0
-924 -955 0
924 -954 955 0
-925 -956 0
925 -955 956 0
-926 -957 0
926 -956 957 0
-927 -958 0
927 -957 958 0
-928 -959 0
928 -958 959 0
-929 -960 0
929 -959 960 0
-930 -961 0
930 -960 961 0
-931 -962 0
931 -961 962 0
-932 -963 0
932 -962 963 0
-933 -964 0
933 -963 964 0
-934 -965 0
934 -964 965 0
-935 -966 0
935 -965 966 0
-936 -967 0
936 -966 967 0
-937 -968 0
937 -967 968 0
-938 -969 0
938 -968 969 0
-939 -970 0
939 -969 970 0
-940 -971 0
940 -970 971 0
-941 -972 0
941 -971 972 0
942 -972 0
943 -944 0
944 -945 0
945 -946 0
946 -947 0
947 -948 0
948 -949 0
949 -950 0
950 -951 0
951 -952 0
952 -953 0
953 -954 0
954 -955 0
955 -956 0
956 -957 0
957 -958 0
958 -959 0
959 -960 0
960 -961 0
961 -962 0
962 -963 0
963 -964 0
964 -965 0
965 -966 0
966 -967 0
967 -968 0
968 -969 0
969 -970 0
970 -971 0
971 -972 0
-1037 -1069 0
-1037 -1100 0
1037 1038 1069 0
1037 1038 1100 0
-1038 -1069 0
-1038 -1100 0
-1039 -1070 0
-1039 -1101 0
1039 -1069 1070 0
1039 -1100 1101 0
-1040 -1071 0
-1040 -1102 0
1040 -1070 1071 0
1040 -1101 1102 0
-1041 -1072 0
-1041 -1103 0
1041 -1071 1072 0
1041 -1102 1103 0
-1042 -1073 0
-1042 -1104 0
1042 -1072 1073 0
1042 -1103 1104 0
-1043 -1074 0
-1043 -1105 0
1043 -1073 1074 0
1043 -1104 1105 0
-1044 -1075 0
-1044 -1106 0
1044 -1074 1075 0
1044 -1105 1106 0
-1045 -1076 0
-1045 -1107 0
1045 -1075 1076 0
1045 -1106 1107 0
-1046 -1077 0
-1046 -1108 0
1046 -1076 1077 0
1046 -1107 1108 0
-1047 -1078 0
-1047 -1109 0
1047 -1077 1078 0
1047 -1108 1109 0
-1048 -1079 0
-1048 -1110 0
1048 -1078 1079 0
1048 -1109 1110 0
-1049 -1080 0
-1049 -1111 0
1049 -1079 1080 0
1049 -1110 1111 0
-1050 -1081 0
-1050 -1112 0
1050 -1080 1081 0
1050 -1111 1112 0
-1051 -1082 0
-1051 -1113 0
1051 -1081 1082 0
1051 -1112 1113 0
-1052 -1083 0
-1052 -1114 0
1052 -1082 1083 0
1052 -1113 1114 0
-1053 -1084 0
-1053 -1115 0
1053 -1083 1084 0
1053 -1114 1115 0
-1054 -1085 0
-1054 -1116 0
1054 -1084 1085 0
1054 -1115 1116 0
-1055 -1086 0
-1055 -1117 0
1055 -1085 1086 0
1055 -1116 1117 0
-1056 -1087 0
-1056 -1118 0
1056 -1086 1087 0
1056 -1117 1118 0
-1057 -1088 0
-1057 -1119 0
1057 -1087 1088 0
1057 -1118 1119 0
-1058 -1089 0
-1058 -1120 0
1058 -1088 1089 0
1058 -1119 1120 0
-1059 -1090 0
-1059 -1121 0
1059 -1089 1090 0
1059 -1120 1121 0
-1060 -1091 0
-1060 -1122 0
1060 -1090 1091 0
1060 -1121 1122 0
-1061 -1092 0
-1061 -1123 0
1061 -1091 1092 0
1061 -1122 1123 0
-1062 -1093 0
-1062 -1123 1124 0
1062 -1124 0
1062 -1092 1093 0
-1063 -1094 0
-1063 -1125 0
1063 -1093 1094 0
1063 -1124 1125 0
-1064 -1095 0
-1064 -1125 1126 0
1064 -1126 0
1064 -1094 1095 0
-1065 -1096 0
-1065 -1126 1127 0
1065 -1127 0
1065 -1095 1096 0
-1066 -1097 0
-1066 -1127 1128 0
1066 -1128 0
1066 -1096 1097 0
-1067 -1098 0
-1067 -1129 0
1067 -1097 1098 0
1067 -1128 1129 0
1068 -1098 0
1068 -1129 0
1069 -1070 0
1070 -1071 0
1071 -1072 0
1072 -1073 0
1073 -1074 0
1074 -1075 0
1075 -1076 0
1076 -1077 0
1077 -1078 0
1078 -1079 0
1079 -1080 0
1080 -1081 0
1081 -1082 0
1082 -1083 0
1083 -1084 0
1084 -1085 0
1085 -1086 0
1086 -1087 0
1087 -1088 0
1088 -1089 0
1089 -1090 0
1090 -1091 0
1091 -1092 0
1092 -1093 0
1093 -1094 0
1094 -1095 0
1095 -1096 0
1096 -1097 0
1097 -1098 0
1100 -1101 0
1101 -1102 0
1102 -1103 0
1103 -1104 0
1104 -1105 0
1105 -1106 0
1106 -1107 0
1107 -1108 0
1108 -1109 0
1109 -1110 0
1110 -1111 0
1111 -1112 0
1112 -1113 0
1113 -1114 0
1114 -1115 0
1115 -1116 0
1116 -1117 0
1117 -1118 0
1118 -1119 0
1119 -1120 0
1120 -1121 0
1121 -1122 0
1122 -1123 0
1123 -1124 0
1124 -1125 0
1125 -1126 0
1126 -1127 0
1127 -1128 0
1128 -1129 0
-1131 -1163 0
1131 1132 1163 0
-1132 -1163 0
-1133 -1164 0
1133 -1163 1164 0
-1134 -1165 0
1134 -1164 1165 0
-1135 -1166 0
1135 -1165 1166 0
-1136 -1167 0
1136 -1166 1167 0
-1137 -1168 0
1137 -1167 1168 0
-1138 -1169 0
1138 -1168 1169 0
-1139 -1170 0
1139 -1169 1170 0
-1140 -1171 0
1140 -1170 1171 0
-1141 -1172 0
1141 -1171 1172 0
-1142 -1173 0
1142 -1172 1173 0
-1143 -1174 0
1143 -1173 1174 0
-1144 -1175 0
1144 -1174 1175 0
-1145 -1176 0
1145 -1175 1176 0
-1146 -1177 0
1146 -1176 1177 0
-1147 -1178 0
1147 -1177 1178 0
-1148 -1179 0
1148 -1178 1179 0
-1149 -1180 0
1149 -1179 1180 0
-1150 -1181 0
1150 -1180 1181 0
-1151 -1182 0
1151 -1181 1182 0
-1152 -1183 0
1152 -1182 1183 0
-1153 -1184 0
1153 -1183 1184 0
-1154 -1185 0
1154 -1184 1185 0
-1155 -1186 0
1155 -1185 1186 0
-1156 -1187 0
1156 -1186 1187 0
-1157 -1188 0
1157 -1187 1188 0
-1158 -1189 0
1158 -1188 1189 0
-1159 -1190 0
1159 -1189 1190 0
-1160 -1191 0
1160 -1190 1191 0
-1161 -1192 0
1161 -1191 1192 0
1162 -1192 0
1163 -1164 0
1164 -1165 0
1165 -1166 0
1166 -1167 0
1167 -1168 0
1168 -1169 0
1169 -1170 0
1170 -1171 0
1171 -1172 0
1172 -1173 0
1173 -1174 0
1174 -1175 0
1175 -1176 0
1176 -1177 0
1177 -1178 0
1178 -1179 0
1179 -1180 0
1180 -1181 0
1181 -1182 0
1182 -1183 0
1183 -1184 0
1184 -1185 0
1185 -1186 0
1186 -1187 0
1187 -1188 0
1188 -1189 0
1189 -1190 0
1190 -1191 0
1191 -1192 0
-1194 -1226 0
-1194 -1257 0
1194 1195 1226 0
1194 1195 1257 0
-1195 -1226 0
-1195 -1257 0
-1196 -1227 0
-1196 -1258 0
1196 -1226 1227 0
1196 -1257 1258 0
-1197 -1228 0
-1197 -1259 0
1197 -1227 1228 0
1197 -1258 1259 0
-1198 -1229 0
-1198 -1260 0
1198 -1228 1229 0
1198 -1259 1260 0
-1199 -1230 0
-1199 -1261 0
1199 -1229 1230 0
1199 -1260 1261 0
-1200 -1231 0
-1200 -1262 0
1200 -1230 1231 0
1200 -1261 1262 0
-1201 -1232 0
-1201 -1263 0
1201 -1231 1232 0
1201 -1262 1263 0
-1202 -1233 0
-1202 -1264 0
1202 -1232 1233 0
1202 -1263 1264 0
-1203 -1234 0
-1203 -1265 0
1203 -1233 1234 0
1203 -1264 1265 0
-1204 -1235 0
-1204 -1266 0
1204 -1234 1235 0
1204 -1265 1266 0
-1205 -1236 0
-1205 -1267 0
1205 -1235 1236 0
1205 -1266 1267 0
-1206 -1237 0
-1206 -1268 0
1206 -1236 1237 0
1206 -1267 1268 0
-1207 -1238 0
-1207 -1269 0
1207 -1237 1238 0
1207 -1268 1269 0
-1208 -1239 0
-1208 -1270 0
1208 -1238 1239 0
1208 -1269 1270 0
-1209 -1240 0
-1209 -1271 0
1209 -1239 1240 0
1209 -1270 1271 0
-1210 -1241 0
-1210 -1272 0
1210 -1240 1241 0
1210 -1271 1272 0
-1211 -1242 0
-1211 -1273 0
1211 -1241 1242 0
1211 -1272 1273 0
-1212 -1243 0
-1212 -1274 0
1212 -1242 1243 0
1212 -1273 1274 0
-1213 -1244 0
-1213 -1275 0
1213 -1243 1244 0
1213 -1274 1275 0
-1214 -1245 0
-1214 -1276 0
1214 -1244 1245 0
1214 -1275 1276 0
-1215 -1246 0
-1215 -1277 0
1215 -1245 1246 0
1215 -1276 1277 0
-1216 -1247 0
-1216 -1278 0
1216 -1246 1247 0
1216 -1277 1278 0
-1217 -1248 0
-1217 -1279 0
1217 -1247 1248 0
1217 -1278 1279 0
-1218 -1249 0
-1218 -1280 0
1218 -1248 1249 0
1218 -1279 1280 0
-1219 -1250 0
-1219 -1280 1281 0
1219 -1281 0
1219 -1249 1250 0
-1220 -1251 0
-1220 -1282 0
1220 -1250 1251 0
1220 -1281 1282 0
-1221 -1252 0
-1221 -1282 1283 0
1221 -1283 0
1221 -1251 1252 0
-1222 -1253 0
-1222 -1283 1284 0
1222 -1284 0
1222 -1252 1253 0
-1223 -1254 0
-1223 -1284 1285 0
1223 -1285 0
1223 -1253 1254 0
-1224 -1255 0
-1224 -1286 0
1224 -1254 1255 0
1224 -1285 1286 0
1225 -1255 0
1225 -1286 0
1226 -1227 0
1227 -1228 0
1228 -1229 0
1229 -1230 0
1230 -1231 0
1231 -1232 0
1232 -1233 0
1233 -1234 0
1234 -1235 0
1235 -1236 0
1236 -1237 0
1237 -1238 0
1238 -1239 0
1239 -1240 0
1240 -1241 0
1241 -1242 0
1242 -1243 0
1243 -1244 0
1244 -1245 0
1245 -1246 0
1246 -1247 0
1247 -1248 0
1248 -1249 0
1249 -1250 0
1250 -1251 0
1251 -1252 0
1252 -1253 0
1253 -1254 0
1254 -1255 0
1257 -1258 0
1258 -1259 0
1259 -1260 0
1260 -1261 0
1261 -1262 0
1262 -1263 0
1263 -1264 0
1264 -1265 0
1265 -1266 0
1266 -1267 0
1267 -1268 0
1268 -1269 0
1269 -1270 0
1270 -1271 0
1271 -1272 0
1272 -1273 0
1273 -1274 0
1274 -1275 0
1275 -1276 0
1276 -1277 0
1277 -1278 0
1278 -1279 0
1279 -1280 0
1280 -1281 0
1281 -1282 0
1282 -1283 0
1283 -1284 0
1284 -1285 0
1285 -1286 0
-1288 -1320 0
-1288 -1351 0
1288 1289 1320 0
1288 1289 1351 0
-1289 -1320 0
-1289 -1351 0
-1290 -1321 0
-1290 -1352 0
1290 -1320 1321 0
1290 -1351 1352 0
-1291 -1322 0
-1291 -1353 0
1291 -1321 1322 0
1291 -1352 1353 0
-1292 -1323 0
-1292 -1354 0
1292 -1322 1323 0
1292 -1353 1354 0
-1293 -1324 0
-1293 -1355 0
1293 -1323 1324 0
1293 -1354 1355 0
-1294 -1325 0
-1294 -1356 0
1294 -1324 1325 0
1294 -1355 1356 0
-1295 -1326 0
-1295 -1357 0
1295 -1325 1326 0
1295 -1356 1357 0
-1296 -1327 0
-1296 -1358 0
1296 -1326 1327 0
1296 -1357 1358 0
-1297 -1328 0
-1297 -1359 0
1297 -1327 1328 0
1297 -1358 1359 0
-1298 -1329 0
-1298 -1360 0
1298 -1328 1329 0
1298 -1359 1360 0
-1299 -1330 0
-1299 -1361 0
1299 -1329 1330 0
1299 -1360 1361 0
-1300 -1331 0
-1300 -1362 0
1300 -1330 1331 0
1300 -1361 1362 0
-1301 -1332 0
-1301 -1363 0
1301 -1331 1332 0
1301 -1362 1363 0
-1302 -1333 0
-1302 -1364 0
1302 -1332 1333 0
1302 -1363 1364 0
-1303 -1334 0
-1303 -1365 0
1303 -1333 1334 0
1303 -1364 1365 0
-1304 -1335 0
-1304 -1366 0
1304 -1334 1335 0
1304 -1365 1366 0
-1305 -1336 0
-1305 -1367 0
1305 -1335 1336 0
1305 -1366 1367 0
-1306 -1337 0
-1306 -1368 0
1306 -1336 1337 0
1306 -1367 1368 0
-1307 -1338 0
-1307 -1369 0
1307 -1337 1338 0
1307 -1368 1369 0
-1308 -1339 0
-1308 -1370 0
1308 -1338 1339 0
1308 -1369 1370 0
-1309 -1340 0
-1309 -1371 0
1309 -1339 1340 0
1309 -1370 1371 0
-1310 -1341 0
-1310 -1372 0
1310 -1340 1341 0
1310 -1371 1372 0
-1311 -1342 0
-1311 -1373 0
1311 -1341 1342 0
1311 -1372 1373 0
-1312 -1343 0
-1312 -1374 0
1312 -1342 1343 0
1312 -1373 1374 0
-1313 -1344 0
-1313 -1374 1375 0
1313 -1375 0
1313 -1343 1344 0
-1314 -1345 0
-1314 -1376 0
1314 -1344 1345 0
1314 -1375 1376 0
-1315 -1346 0
-1315 -1376 1377 0
1315 -1377 0
1315 -1345 1346 0
-1316 -1347 0
-1316 -1377 1378 0
1316 -1378 0
1316 -1346 1347 0
-1317 -1348 0
-1317 -1378 1379 0
1317 -1379 0
1317 -1347 1348 0
-1318 -1349 0
-1318 -1380 0
1318 -1348 1349 0
1318 -1379 1380 0
1319 -1349 0
1319 -1380 0
1320 -1321 0
1321 -1322 0
1322 -1323 0
1323 -1324 0
1324 -1325 0
1325 -1326 0
1326 -1327 0
1327 -1328 0
1328 -1329 0
1329 -1330 0
1330 -1331 0
1331 -1332 0
1332 -1333 0
1333 -1334 0
1334 -1335 0
1335 -1336 0
1336 -1337 0
1337 -1338 0
1338 -1339 0
1339 -1340 0
1340 -1341 0
1341 -1342 0
1342 -1343 0
1343 -1344 0
1344 -1345 0
1345 -1346 0
1346 -1347 0
1347 -1348 0
1348 -1349 0
1351 -1352 0
1352 -1353 0
1353 -1354 0
1354 -1355 0
1355 -1356 0
1356 -1357 0
1357 -1358 0
1358 -1359 0
1359 -1360 0
1360 -1361 0
1361 -1362 0
1362 -1363 0
1363 -1364 0
1364 -1365 0
1365 -1366 0
1366 -1367 0
1367 -1368 0
1368 -1369 0
1369 -1370 0
1370 -1371 0
1371 -1372 0
1372 -1373 0
1373 -1374 0
1374 -1375 0
1375 -1376 0
1376 -1377 0
1377 -1378 0
1378 -1379 0
1379 -1380 0
